PROBLEM NAME : benchmark_04_10cities
KNAPSACK DATA TYPE : uncorrelated
DIMENSION : 10
NUMBER OF ITEMS : 12
CAPACITY OF KNAPSACK : 180
MIN SPEED : 0.1
MAX SPEED : 1.0
RENTING RATIO : 0.55
EDGE_WEIGHT_TYPE : CEIL_2D
NODE_COORD_SECTION
1 40 40
2 12 72
3 68 78
4 78 22
5 6 8
6 52 58
7 24 16
8 62 34
9 32 52
10 74 68
ITEMS SECTION
1 100 25 2
2 70 16 2
3 130 32 3
4 55 14 4
5 85 22 5
6 42 10 6
7 95 24 7
8 60 15 8
9 110 28 9
10 48 12 10
11 75 18 3
12 35 9 5
